Problem:    lp_problem6
Rows:       7
Columns:    3
Non-zeros:  15
Status:     OPTIMAL
Objective:  z = -16.5 (MAXimum)

   No.   Row name   St   Activity     Lower bound   Upper bound    Marginal
------ ------------ -- ------------- ------------- ------------- -------------
     1 z            B          -16.5                             
     2 con1         B          -19.5                          -7 
     3 con2         B           -3.5                           7 
     4 con3         B           -2.5                          -2 
     5 con4         NU            -1                          -1           1.5 
     6 con5         NU            -6                          -6           2.5 
     7 con6         NU             0                          -0          16.5 

   No. Column name  St   Activity     Lower bound   Upper bound    Marginal
------ ------------ -- ------------- ------------- ------------- -------------
     1 y1           B           -2.5                             
     2 y2           B             -6                             
     3 y3           B              0                             

Karush-Kuhn-Tucker optimality conditions:

KKT.PE: max.abs.err = 0.00e+00 on row 0
        max.rel.err = 0.00e+00 on row 0
        High quality

KKT.PB: max.abs.err = 0.00e+00 on row 0
        max.rel.err = 0.00e+00 on row 0
        High quality

KKT.DE: max.abs.err = 0.00e+00 on column 0
        max.rel.err = 0.00e+00 on column 0
        High quality

KKT.DB: max.abs.err = 0.00e+00 on row 0
        max.rel.err = 0.00e+00 on row 0
        High quality

End of output
